50
1000
483
476
471
455
443
441
434
434
426
426
421
417
408
397
395
394
389
380
380
378
375
373
357
340
325
319
318
310
304
292
291
277
275
271
265
265
263
244
240
224
218
214
202
202
198
195
189
184
181
169
